Route #1: 82 94 64 105 69 17 2 83 77 54
Route #2: 57 63 31 40 13 85 21 74
Route #3: 96 45 100 51 76 15 44 5
Route #4: 29 72 34 11 99 49 71
Route #5: 60 87 43 97 93 101 103 53
Route #6: 67 48 8 36 91 88 58 14
Route #7: 1 104 12 9 84 75 7
Route #8: 62 26 90 24 102 92 52
Route #9: 28 66 46 79 37 27 19 78
Route #10: 22 33
Route #11: 86 18 41 10 16 20 56
Route #12: 35 73 32 3 23 42 30 89 59
Route #13: 55 98 4 70 6 81 50 39
Route #14: 25 47 61 80 65 38 95 68
